% demand
num_movements = 39;
loading_factor = [1300, 1750, 1700, 1400, 1450, 950, 1350, 1350, 1100, 1350, 1200, 900, 1600, 1950, 950, 1650, 1800, 1700, 2000, 1600, 1050, 950, 1850, 1900, 1350, 1200, 1850, 1350, 1150, 1650, 850, 1900, 950, 1850, 1050, 1550, 1750, 1950, 1550];
pickup_time = [0, 0, 0, 0, 0, 1, 1, 1, 1, 2, 2, 2, 2, 2, 2, 3, 4, 4, 4, 5, 5, 5, 7, 7, 7, 8, 8, 8, 9, 9, 9, 9, 9, 10, 10, 10, 11, 11, 12];
delivery_time = [2, 2, 4, 1, 2, 2, 4, 2, 2, 4, 3, 4, 4, 6, 3, 6, 7, 5, 7, 6, 7, 8, 8, 13, 9, 11, 9, 9, 10, 11, 13, 10, 13, 13, 11, 11, 13, 13, 13];

% transporter definition
total_capacity = 11000;
num_decks = 4;
capacity = [3000, 3000, 1000, 4000];

% ways out of decks
num_ways_out = 2;
paths_out = array3d(decks, ways_out, decks, [
% ways out of deck d1
2, 4, 0, 0, 3, 4, 0, 0, 

% ways out of deck d2
4, 0, 0, 0, 0, 0, 0, 0,	

% ways out of deck d3
4, 0, 0, 0, 0, 0, 0, 0,	

% ways out of deck d4
0, 0, 0, 0,	0, 0, 0, 0,	

]);

